% Auto-generated by scripts/generate_dzn.py
% problem_type   = regex
% instance       = regex_92
% source_json    = instances_json/2_high_blowup/regex_92.json
% blowup         = 35.285714285714285
% representation = DFA

mode = 0;

var_count = 30;
Q = 494;
S = 2;
q0 = 1;
F = {306, 307, 308, 309, 310, 311, 312, 313, 314, 315, 316, 317, 318, 319, 320, 321, 322, 323, 324, 325, 326, 327, 328, 329, 330, 331, 332, 333, 334, 335, 336, 337, 338, 339, 340, 341, 342, 343, 344, 345, 346, 347, 348, 349, 350, 351, 352, 353, 354, 355, 356, 357, 358, 359, 360, 361, 362, 363, 364, 365, 366, 367, 368, 369, 370, 371, 372, 373, 374, 375, 376, 377, 378, 379, 380, 381, 382, 383, 384, 385, 386, 387, 388, 389, 390, 391, 392, 393, 394, 395, 396, 397, 398, 399, 400, 401, 402, 403, 404, 405, 406, 407, 408, 409, 410, 411, 412, 413, 414, 415, 416, 417, 418, 419, 420, 421, 422, 423, 424, 425, 426, 427, 428, 429, 430, 431, 432, 433, 434, 435, 436, 437, 438, 439, 440, 441, 442, 443, 444, 445, 446, 447, 448, 449, 450, 451, 452, 453, 454, 455, 456, 457, 458, 459, 460, 461, 462, 463, 464, 465, 466, 467, 468, 469, 470, 471, 472, 473, 474, 475, 476, 477, 478, 479, 480, 481, 482, 483, 484, 485, 486, 487, 488, 489, 490, 491, 492, 493, 494};
d_dfa = array2d(1..494, 1..2, [
  1, 2,
  1, 3,
  1, 4,
  6, 5,
  8, 7,
  10, 9,
  12, 11,
  14, 13,
  16, 15,
  16, 17,
  19, 18,
  21, 20,
  23, 22,
  23, 24,
  26, 25,
  26, 27,
  26, 28,
  30, 29,
  32, 31,
  34, 33,
  34, 35,
  37, 36,
  37, 38,
  37, 39,
  41, 40,
  43, 42,
  43, 44,
  43, 45,
  47, 46,
  49, 48,
  51, 50,
  51, 52,
  54, 53,
  54, 55,
  54, 56,
  58, 57,
  60, 59,
  60, 61,
  60, 62,
  64, 63,
  66, 65,
  68, 67,
  68, 69,
  68, 70,
  72, 71,
  74, 73,
  76, 75,
  78, 77,
  78, 79,
  81, 80,
  81, 82,
  81, 83,
  85, 84,
  87, 86,
  87, 88,
  87, 89,
  91, 90,
  93, 92,
  95, 94,
  95, 96,
  95, 97,
  99, 98,
  101, 100,
  103, 102,
  105, 104,
  105, 106,
  108, 107,
  108, 109,
  108, 110,
  112, 111,
  114, 113,
  116, 115,
  118, 117,
  120, 119,
  122, 121,
  122, 123,
  125, 124,
  125, 126,
  125, 127,
  129, 128,
  131, 130,
  131, 132,
  131, 133,
  135, 134,
  137, 136,
  139, 138,
  139, 140,
  139, 141,
  143, 142,
  145, 144,
  147, 146,
  149, 148,
  149, 150,
  152, 151,
  152, 153,
  152, 154,
  156, 155,
  158, 157,
  160, 159,
  162, 161,
  164, 163,
  166, 165,
  166, 167,
  169, 168,
  169, 170,
  169, 171,
  173, 172,
  175, 174,
  175, 176,
  175, 177,
  179, 178,
  181, 180,
  183, 182,
  185, 184,
  187, 186,
  187, 188,
  190, 189,
  192, 191,
  194, 193,
  194, 195,
  197, 196,
  197, 198,
  197, 199,
  201, 200,
  203, 202,
  203, 204,
  203, 205,
  207, 206,
  209, 208,
  211, 210,
  211, 212,
  211, 213,
  215, 214,
  217, 216,
  219, 218,
  221, 220,
  221, 222,
  224, 223,
  224, 225,
  224, 226,
  228, 227,
  230, 229,
  232, 231,
  234, 233,
  236, 235,
  238, 237,
  238, 239,
  241, 240,
  241, 242,
  241, 243,
  245, 244,
  247, 246,
  247, 248,
  247, 249,
  251, 250,
  253, 252,
  255, 254,
  257, 256,
  259, 258,
  259, 260,
  262, 261,
  264, 263,
  266, 265,
  266, 267,
  269, 268,
  269, 270,
  269, 271,
  273, 272,
  275, 274,
  275, 276,
  275, 277,
  279, 278,
  281, 280,
  283, 282,
  283, 284,
  283, 285,
  287, 286,
  289, 288,
  291, 290,
  293, 292,
  293, 294,
  296, 295,
  298, 297,
  300, 299,
  300, 301,
  303, 302,
  303, 304,
  303, 305,
  307, 306,
  309, 308,
  311, 310,
  311, 312,
  314, 313,
  314, 315,
  314, 316,
  318, 317,
  320, 319,
  320, 321,
  320, 322,
  324, 323,
  326, 325,
  328, 327,
  328, 329,
  328, 330,
  332, 331,
  334, 333,
  336, 335,
  338, 337,
  338, 339,
  341, 340,
  341, 342,
  341, 343,
  345, 344,
  347, 346,
  349, 348,
  351, 350,
  353, 352,
  355, 354,
  355, 356,
  358, 357,
  358, 359,
  358, 360,
  362, 361,
  364, 363,
  364, 365,
  364, 366,
  368, 367,
  370, 369,
  372, 371,
  374, 373,
  376, 375,
  376, 377,
  379, 378,
  381, 380,
  383, 382,
  383, 384,
  386, 385,
  386, 387,
  386, 388,
  390, 389,
  392, 391,
  392, 393,
  392, 394,
  396, 395,
  398, 397,
  400, 399,
  400, 401,
  400, 402,
  404, 403,
  406, 405,
  408, 407,
  410, 409,
  410, 411,
  413, 412,
  415, 414,
  417, 416,
  417, 418,
  420, 419,
  420, 421,
  420, 422,
  424, 423,
  426, 425,
  428, 427,
  428, 429,
  431, 430,
  431, 432,
  431, 433,
  435, 434,
  437, 436,
  437, 438,
  437, 439,
  441, 440,
  443, 442,
  445, 444,
  445, 446,
  445, 447,
  449, 448,
  451, 450,
  453, 452,
  455, 454,
  455, 456,
  458, 457,
  458, 459,
  458, 460,
  462, 461,
  464, 463,
  466, 465,
  468, 467,
  470, 469,
  472, 471,
  472, 473,
  475, 474,
  475, 476,
  475, 477,
  479, 478,
  481, 480,
  483, 482,
  483, 484,
  486, 485,
  486, 487,
  486, 488,
  490, 489,
  492, 491,
  492, 493,
  492, 494,
  307, 306,
  309, 308,
  311, 310,
  311, 312,
  314, 313,
  314, 315,
  314, 316,
  318, 317,
  320, 319,
  320, 321,
  320, 322,
  324, 323,
  326, 325,
  328, 327,
  328, 329,
  328, 330,
  332, 331,
  334, 333,
  336, 335,
  338, 337,
  338, 339,
  341, 340,
  341, 342,
  341, 343,
  345, 344,
  347, 346,
  349, 348,
  351, 350,
  353, 352,
  355, 354,
  355, 356,
  358, 357,
  358, 359,
  358, 360,
  362, 361,
  364, 363,
  364, 365,
  364, 366,
  368, 367,
  370, 369,
  372, 371,
  374, 373,
  376, 375,
  376, 377,
  379, 378,
  381, 380,
  383, 382,
  383, 384,
  386, 385,
  386, 387,
  386, 388,
  390, 389,
  392, 391,
  392, 393,
  392, 394,
  396, 395,
  398, 397,
  400, 399,
  400, 401,
  400, 402,
  404, 403,
  406, 405,
  408, 407,
  410, 409,
  410, 411,
  413, 412,
  415, 414,
  417, 416,
  417, 418,
  420, 419,
  420, 421,
  420, 422,
  424, 423,
  426, 425,
  428, 427,
  428, 429,
  431, 430,
  431, 432,
  431, 433,
  435, 434,
  437, 436,
  437, 438,
  437, 439,
  441, 440,
  443, 442,
  445, 444,
  445, 446,
  445, 447,
  449, 448,
  451, 450,
  453, 452,
  455, 454,
  455, 456,
  458, 457,
  458, 459,
  458, 460,
  462, 461,
  464, 463,
  466, 465,
  468, 467,
  470, 469,
  472, 471,
  472, 473,
  475, 474,
  475, 476,
  475, 477,
  479, 478,
  481, 480,
  483, 482,
  483, 484,
  486, 485,
  486, 487,
  486, 488,
  490, 489,
  492, 491,
  492, 493,
  492, 494,
  74, 73,
  76, 75,
  78, 77,
  78, 79,
  81, 80,
  81, 82,
  81, 83,
  85, 84,
  87, 86,
  87, 88,
  87, 89,
  91, 90,
  93, 92,
  95, 94,
  95, 96,
  95, 97,
  99, 98,
  101, 100,
  103, 102,
  105, 104,
  105, 106,
  108, 107,
  108, 109,
  108, 110,
  112, 111,
  114, 113,
  116, 115,
  19, 18,
  21, 20,
  23, 22,
  23, 24,
  26, 25,
  26, 27,
  26, 28,
  6, 5,
  1, 2,
  1, 3,
  1, 4,
  8, 7,
  10, 9,
  12, 11,
  14, 13,
  16, 15,
  16, 17,
  30, 29,
  32, 31,
  34, 33,
  34, 35,
  37, 36,
  37, 38,
  37, 39,
  41, 40,
  43, 42,
  43, 44,
  43, 45,
  47, 46,
  49, 48,
  51, 50,
  51, 52,
  54, 53,
  54, 55,
  54, 56,
  58, 57,
  60, 59,
  60, 61,
  60, 62,
  64, 63,
  66, 65,
  68, 67,
  68, 69,
  68, 70,
  72, 71
]);
d_nfa = array2d(1..494, 1..2, [
  {}, {},
  {}, {},
  {}, {},
  {}, {},
  {}, {},
  {}, {},
  {}, {},
  {}, {},
  {}, {},
  {}, {},
  {}, {},
  {}, {},
  {}, {},
  {}, {},
  {}, {},
  {}, {},
  {}, {},
  {}, {},
  {}, {},
  {}, {},
  {}, {},
  {}, {},
  {}, {},
  {}, {},
  {}, {},
  {}, {},
  {}, {},
  {}, {},
  {}, {},
  {}, {},
  {}, {},
  {}, {},
  {}, {},
  {}, {},
  {}, {},
  {}, {},
  {}, {},
  {}, {},
  {}, {},
  {}, {},
  {}, {},
  {}, {},
  {}, {},
  {}, {},
  {}, {},
  {}, {},
  {}, {},
  {}, {},
  {}, {},
  {}, {},
  {}, {},
  {}, {},
  {}, {},
  {}, {},
  {}, {},
  {}, {},
  {}, {},
  {}, {},
  {}, {},
  {}, {},
  {}, {},
  {}, {},
  {}, {},
  {}, {},
  {}, {},
  {}, {},
  {}, {},
  {}, {},
  {}, {},
  {}, {},
  {}, {},
  {}, {},
  {}, {},
  {}, {},
  {}, {},
  {}, {},
  {}, {},
  {}, {},
  {}, {},
  {}, {},
  {}, {},
  {}, {},
  {}, {},
  {}, {},
  {}, {},
  {}, {},
  {}, {},
  {}, {},
  {}, {},
  {}, {},
  {}, {},
  {}, {},
  {}, {},
  {}, {},
  {}, {},
  {}, {},
  {}, {},
  {}, {},
  {}, {},
  {}, {},
  {}, {},
  {}, {},
  {}, {},
  {}, {},
  {}, {},
  {}, {},
  {}, {},
  {}, {},
  {}, {},
  {}, {},
  {}, {},
  {}, {},
  {}, {},
  {}, {},
  {}, {},
  {}, {},
  {}, {},
  {}, {},
  {}, {},
  {}, {},
  {}, {},
  {}, {},
  {}, {},
  {}, {},
  {}, {},
  {}, {},
  {}, {},
  {}, {},
  {}, {},
  {}, {},
  {}, {},
  {}, {},
  {}, {},
  {}, {},
  {}, {},
  {}, {},
  {}, {},
  {}, {},
  {}, {},
  {}, {},
  {}, {},
  {}, {},
  {}, {},
  {}, {},
  {}, {},
  {}, {},
  {}, {},
  {}, {},
  {}, {},
  {}, {},
  {}, {},
  {}, {},
  {}, {},
  {}, {},
  {}, {},
  {}, {},
  {}, {},
  {}, {},
  {}, {},
  {}, {},
  {}, {},
  {}, {},
  {}, {},
  {}, {},
  {}, {},
  {}, {},
  {}, {},
  {}, {},
  {}, {},
  {}, {},
  {}, {},
  {}, {},
  {}, {},
  {}, {},
  {}, {},
  {}, {},
  {}, {},
  {}, {},
  {}, {},
  {}, {},
  {}, {},
  {}, {},
  {}, {},
  {}, {},
  {}, {},
  {}, {},
  {}, {},
  {}, {},
  {}, {},
  {}, {},
  {}, {},
  {}, {},
  {}, {},
  {}, {},
  {}, {},
  {}, {},
  {}, {},
  {}, {},
  {}, {},
  {}, {},
  {}, {},
  {}, {},
  {}, {},
  {}, {},
  {}, {},
  {}, {},
  {}, {},
  {}, {},
  {}, {},
  {}, {},
  {}, {},
  {}, {},
  {}, {},
  {}, {},
  {}, {},
  {}, {},
  {}, {},
  {}, {},
  {}, {},
  {}, {},
  {}, {},
  {}, {},
  {}, {},
  {}, {},
  {}, {},
  {}, {},
  {}, {},
  {}, {},
  {}, {},
  {}, {},
  {}, {},
  {}, {},
  {}, {},
  {}, {},
  {}, {},
  {}, {},
  {}, {},
  {}, {},
  {}, {},
  {}, {},
  {}, {},
  {}, {},
  {}, {},
  {}, {},
  {}, {},
  {}, {},
  {}, {},
  {}, {},
  {}, {},
  {}, {},
  {}, {},
  {}, {},
  {}, {},
  {}, {},
  {}, {},
  {}, {},
  {}, {},
  {}, {},
  {}, {},
  {}, {},
  {}, {},
  {}, {},
  {}, {},
  {}, {},
  {}, {},
  {}, {},
  {}, {},
  {}, {},
  {}, {},
  {}, {},
  {}, {},
  {}, {},
  {}, {},
  {}, {},
  {}, {},
  {}, {},
  {}, {},
  {}, {},
  {}, {},
  {}, {},
  {}, {},
  {}, {},
  {}, {},
  {}, {},
  {}, {},
  {}, {},
  {}, {},
  {}, {},
  {}, {},
  {}, {},
  {}, {},
  {}, {},
  {}, {},
  {}, {},
  {}, {},
  {}, {},
  {}, {},
  {}, {},
  {}, {},
  {}, {},
  {}, {},
  {}, {},
  {}, {},
  {}, {},
  {}, {},
  {}, {},
  {}, {},
  {}, {},
  {}, {},
  {}, {},
  {}, {},
  {}, {},
  {}, {},
  {}, {},
  {}, {},
  {}, {},
  {}, {},
  {}, {},
  {}, {},
  {}, {},
  {}, {},
  {}, {},
  {}, {},
  {}, {},
  {}, {},
  {}, {},
  {}, {},
  {}, {},
  {}, {},
  {}, {},
  {}, {},
  {}, {},
  {}, {},
  {}, {},
  {}, {},
  {}, {},
  {}, {},
  {}, {},
  {}, {},
  {}, {},
  {}, {},
  {}, {},
  {}, {},
  {}, {},
  {}, {},
  {}, {},
  {}, {},
  {}, {},
  {}, {},
  {}, {},
  {}, {},
  {}, {},
  {}, {},
  {}, {},
  {}, {},
  {}, {},
  {}, {},
  {}, {},
  {}, {},
  {}, {},
  {}, {},
  {}, {},
  {}, {},
  {}, {},
  {}, {},
  {}, {},
  {}, {},
  {}, {},
  {}, {},
  {}, {},
  {}, {},
  {}, {},
  {}, {},
  {}, {},
  {}, {},
  {}, {},
  {}, {},
  {}, {},
  {}, {},
  {}, {},
  {}, {},
  {}, {},
  {}, {},
  {}, {},
  {}, {},
  {}, {},
  {}, {},
  {}, {},
  {}, {},
  {}, {},
  {}, {},
  {}, {},
  {}, {},
  {}, {},
  {}, {},
  {}, {},
  {}, {},
  {}, {},
  {}, {},
  {}, {},
  {}, {},
  {}, {},
  {}, {},
  {}, {},
  {}, {},
  {}, {},
  {}, {},
  {}, {},
  {}, {},
  {}, {},
  {}, {},
  {}, {},
  {}, {},
  {}, {},
  {}, {},
  {}, {},
  {}, {},
  {}, {},
  {}, {},
  {}, {},
  {}, {},
  {}, {},
  {}, {},
  {}, {},
  {}, {},
  {}, {},
  {}, {},
  {}, {},
  {}, {},
  {}, {},
  {}, {},
  {}, {},
  {}, {},
  {}, {},
  {}, {},
  {}, {},
  {}, {},
  {}, {},
  {}, {},
  {}, {},
  {}, {},
  {}, {},
  {}, {},
  {}, {},
  {}, {},
  {}, {},
  {}, {},
  {}, {},
  {}, {},
  {}, {},
  {}, {},
  {}, {},
  {}, {},
  {}, {},
  {}, {},
  {}, {},
  {}, {},
  {}, {},
  {}, {},
  {}, {},
  {}, {},
  {}, {},
  {}, {},
  {}, {},
  {}, {},
  {}, {},
  {}, {},
  {}, {},
  {}, {},
  {}, {},
  {}, {},
  {}, {},
  {}, {},
  {}, {},
  {}, {},
  {}, {},
  {}, {},
  {}, {},
  {}, {},
  {}, {},
  {}, {},
  {}, {},
  {}, {},
  {}, {},
  {}, {},
  {}, {},
  {}, {},
  {}, {},
  {}, {},
  {}, {},
  {}, {},
  {}, {},
  {}, {},
  {}, {}
]);
